examples/inputs/input17.dzn
n = 55;
l = 450;
s = 450;
r = 450;
f = 100;
forbidden = [| 12, 9
	| 24, 47
	| 55, 9
	| 23, 29
	| 50, 22
	| 2, 15
	| 22, 4
	| 49, 14
	| 12, 37
	| 51, 52
	| 36, 21
	| 30, 30
	| 47, 51
	| 41, 48
	| 44, 11
	| 23, 20
	| 20, 4
	| 53, 26
	| 39, 32
	| 19, 24
	| 47, 39
	| 19, 13
	| 36, 9
	| 4, 12
	| 49, 25
	| 15, 7
	| 14, 29
	| 33, 37
	| 49, 47
	| 55, 39
	| 8, 9
	| 23, 36
	| 21, 23
	| 48, 19
	| 42, 49
	| 4, 53
	| 17, 40
	| 34, 53
	| 35, 23
	| 28, 27
	| 55, 13
	| 39, 39
	| 16, 19
	| 29, 28
	| 29, 9
	| 35, 15
	| 19, 41
	| 35, 44
	| 22, 36
	| 36, 24
	| 16, 7
	| 51, 18
	| 9, 51
	| 27, 18
	| 19, 19
	| 51, 11
	| 49, 16
	| 2, 28
	| 50, 24
	| 8, 24
	| 48, 50
	| 10, 2
	| 30, 32
	| 21, 9
	| 27, 43
	| 45, 14
	| 21, 18
	| 32, 21
	| 30, 33
	| 12, 55
	| 37, 54
	| 26, 30
	| 48, 6
	| 29, 54
	| 10, 36
	| 17, 39
	| 40, 26
	| 41, 15
	| 51, 42
	| 27, 42
	| 54, 29
	| 51, 43
	| 27, 34
	| 20, 31
	| 23, 51
	| 39, 33
	| 45, 5
	| 34, 36
	| 31, 1
	| 7, 48
	| 8, 21
	| 12, 31
	| 43, 47
	| 55, 18
	| 33, 38
	| 23, 1
	| 20, 23
	| 14, 27
	| 41, 36
	| 35, 53
	|];