examples/inputs/input17.lp
#const n = 55.
#const l = 450.
#const s = 450.
#const r = 450.
#const f = 100.
val(12, 9, xxx).
val(24, 47, xxx).
val(55, 9, xxx).
val(23, 29, xxx).
val(50, 22, xxx).
val(2, 15, xxx).
val(22, 4, xxx).
val(49, 14, xxx).
val(12, 37, xxx).
val(51, 52, xxx).
val(36, 21, xxx).
val(30, 30, xxx).
val(47, 51, xxx).
val(41, 48, xxx).
val(44, 11, xxx).
val(23, 20, xxx).
val(20, 4, xxx).
val(53, 26, xxx).
val(39, 32, xxx).
val(19, 24, xxx).
val(47, 39, xxx).
val(19, 13, xxx).
val(36, 9, xxx).
val(4, 12, xxx).
val(49, 25, xxx).
val(15, 7, xxx).
val(14, 29, xxx).
val(33, 37, xxx).
val(49, 47, xxx).
val(55, 39, xxx).
val(8, 9, xxx).
val(23, 36, xxx).
val(21, 23, xxx).
val(48, 19, xxx).
val(42, 49, xxx).
val(4, 53, xxx).
val(17, 40, xxx).
val(34, 53, xxx).
val(35, 23, xxx).
val(28, 27, xxx).
val(55, 13, xxx).
val(39, 39, xxx).
val(16, 19, xxx).
val(29, 28, xxx).
val(29, 9, xxx).
val(35, 15, xxx).
val(19, 41, xxx).
val(35, 44, xxx).
val(22, 36, xxx).
val(36, 24, xxx).
val(16, 7, xxx).
val(51, 18, xxx).
val(9, 51, xxx).
val(27, 18, xxx).
val(19, 19, xxx).
val(51, 11, xxx).
val(49, 16, xxx).
val(2, 28, xxx).
val(50, 24, xxx).
val(8, 24, xxx).
val(48, 50, xxx).
val(10, 2, xxx).
val(30, 32, xxx).
val(21, 9, xxx).
val(27, 43, xxx).
val(45, 14, xxx).
val(21, 18, xxx).
val(32, 21, xxx).
val(30, 33, xxx).
val(12, 55, xxx).
val(37, 54, xxx).
val(26, 30, xxx).
val(48, 6, xxx).
val(29, 54, xxx).
val(10, 36, xxx).
val(17, 39, xxx).
val(40, 26, xxx).
val(41, 15, xxx).
val(51, 42, xxx).
val(27, 42, xxx).
val(54, 29, xxx).
val(51, 43, xxx).
val(27, 34, xxx).
val(20, 31, xxx).
val(23, 51, xxx).
val(39, 33, xxx).
val(45, 5, xxx).
val(34, 36, xxx).
val(31, 1, xxx).
val(7, 48, xxx).
val(8, 21, xxx).
val(12, 31, xxx).
val(43, 47, xxx).
val(55, 18, xxx).
val(33, 38, xxx).
val(23, 1, xxx).
val(20, 23, xxx).
val(14, 27, xxx).
val(41, 36, xxx).
val(35, 53, xxx).